(declare-fun var0 () String)
(assert (str.in.re var0 (re.++ (re.* (re.* (str.to.re "i"))) (re.++ (re.+ (re.union (str.to.re "ggg") (str.to.re "hhh"))) (re.++ (re.union (re.union (str.to.re "c") (str.to.re "ddd")) (re.union (str.to.re "eee") (str.to.re "ff"))) (re.++ (re.* (re.+ (str.to.re "b"))) (re.++ (re.* (re.+ (str.to.re "aa"))) (re.++ (re.union (re.union (str.to.re "7") (str.to.re "88")) (re.* (str.to.re "9"))) (re.++ (re.union (re.* (str.to.re "4")) (re.union (str.to.re "555") (str.to.re "6"))) (re.++ (re.* (re.* (str.to.re "3"))) (re.++ (re.* (re.union (str.to.re "111") (str.to.re "222"))) (re.* (re.+ (str.to.re "00"))))))))))))))
(assert (<= 476 (str.len var0)))
(check-sat)